\ LP format - for model browsing. Use MPS format to capture full model detail.
Minimize
  0 e(1,1,6) + 0 e(1,2,7) + 0 e(1,3,8) + 0 e(2,2,4) + 0 e(2,3,6)
   + 0 e(2,1,7) + 0 e(3,1,4) + 0 e(3,2,5) + 0 e(3,3,5) + C
Subject To
 inicio(m1,t1): - f(1,1) = -1
 inicio(m2,t1): - f(2,1) - x(2,2,1) = -1
 inicio(m3,t1): - f(3,1) - x(3,1,1) - x(3,3,1) = -1
 c29(1,2): f(1,1) - f(1,2) = 0
 c29(1,3): f(1,2) - f(1,3) - x(1,1,3) = 0
 c29(1,4): f(1,3) + x(1,1,3) - f(1,4) - x(1,1,4) - x(1,2,4) - x(1,3,4) = 0
 c29(1,5): f(1,4) + x(1,1,4) + x(1,3,4) - f(1,5) - x(1,1,5) - x(1,2,5)
   - x(1,3,5) = 0
 c29(1,6): x(1,2,4) + f(1,5) + x(1,1,5) + x(1,3,5) - f(1,6) - x(1,1,6)
   - x(1,2,6) - x(1,3,6) = 0
 c29(1,7): x(1,2,5) + f(1,6) + x(1,1,6) + x(1,3,6) - f(1,7) - x(1,2,7)
   - x(1,3,7) = 0
 c29(1,8): x(1,2,6) + f(1,7) + x(1,3,7) - f(1,8) - x(1,3,8) = 0
 c29(2,2): f(2,1) + x(2,2,1) - f(2,2) - x(2,2,2) - x(2,3,2) = 0
 c29(2,3): f(2,2) + x(2,2,2) - f(2,3) - x(2,2,3) - x(2,3,3) = 0
 c29(2,4): x(2,3,2) + f(2,3) + x(2,2,3) - f(2,4) - x(2,1,4) - x(2,2,4)
   - x(2,3,4) = 0
 c29(2,5): x(2,3,3) + f(2,4) + x(2,2,4) - f(2,5) - x(2,1,5) - x(2,3,5) = 0
 c29(2,6): x(2,1,4) + x(2,3,4) + f(2,5) - f(2,6) - x(2,1,6) - x(2,3,6) = 0
 c29(2,7): x(2,1,5) + x(2,3,5) + f(2,6) - f(2,7) - x(2,1,7) = 0
 c29(2,8): x(2,1,6) + x(2,3,6) + f(2,7) - f(2,8) = 0
 c29(3,2): f(3,1) + x(3,3,1) - f(3,2) - x(3,1,2) - x(3,2,2) - x(3,3,2) = 0
 c29(3,3): x(3,1,1) + f(3,2) + x(3,3,2) - f(3,3) - x(3,1,3) - x(3,2,3)
   - x(3,3,3) = 0
 c29(3,4): x(3,1,2) + x(3,2,2) + f(3,3) + x(3,3,3) - f(3,4) - x(3,1,4)
   - x(3,2,4) - x(3,3,4) = 0
 c29(3,5): x(3,1,3) + x(3,2,3) + f(3,4) + x(3,3,4) - f(3,5) - x(3,2,5)
   - x(3,3,5) = 0
 c29(3,6): x(3,1,4) + x(3,2,4) + f(3,5) + x(3,3,5) - f(3,6) = 0
 c29(3,7): x(3,2,5) + f(3,6) - f(3,7) = 0
 c29(3,8): f(3,7) - f(3,8) = 0
 espera_ini(m2,j1,t1): - x(3,1,1) - e(3,1,1) = -1
 espera_ini(m1,j2,t1): - x(2,2,1) - e(2,2,1) = -1
 espera_ini(m2,j3,t1): - x(3,3,1) - e(3,3,1) = -1
 execute_wait(3,1,2): e(3,1,1) - x(3,1,2) - e(3,1,2) = 0
 execute_wait(3,1,3): e(3,1,2) - x(3,1,3) - e(3,1,3) = 0
 execute_wait(2,2,2): e(2,2,1) - x(2,2,2) - e(2,2,2) = 0
 execute_wait(2,2,3): e(2,2,2) - x(2,2,3) - e(2,2,3) = 0
 execute_wait(3,3,2): e(3,3,1) - x(3,3,2) - e(3,3,2) = 0
 execute_wait(3,3,3): e(3,3,2) - x(3,3,3) - e(3,3,3) = 0
 execute_wait(3,3,4): e(3,3,3) - x(3,3,4) - e(3,3,4) = 0
 execute_wait(1,1,3): - x(1,1,3) - e(1,1,3) + x(3,1,1) = 0
 execute_wait(1,1,4): e(1,1,3) - x(1,1,4) - e(1,1,4) + x(3,1,2) = 0
 execute_wait(1,1,5): e(1,1,4) - x(1,1,5) - e(1,1,5) + x(3,1,3) = 0
 execute_wait(3,2,2): x(2,2,1) - x(3,2,2) - e(3,2,2) = 0
 execute_wait(3,2,3): x(2,2,2) + e(3,2,2) - x(3,2,3) - e(3,2,3) = 0
 execute_wait(3,2,4): x(2,2,3) + e(3,2,3) - x(3,2,4) - e(3,2,4) = 0
 execute_wait(2,3,2): - x(2,3,2) - e(2,3,2) + x(3,3,1) = 0
 execute_wait(2,3,3): e(2,3,2) - x(2,3,3) - e(2,3,3) + x(3,3,2) = 0
 execute_wait(2,3,4): e(2,3,3) - x(2,3,4) - e(2,3,4) + x(3,3,3) = 0
 execute_wait(2,3,5): e(2,3,4) - x(2,3,5) - e(2,3,5) + x(3,3,4) = 0
 execute_wait(2,1,4): x(1,1,3) - x(2,1,4) - e(2,1,4) = 0
 execute_wait(2,1,5): x(1,1,4) + e(2,1,4) - x(2,1,5) - e(2,1,5) = 0
 execute_wait(2,1,6): x(1,1,5) + e(2,1,5) - x(2,1,6) - e(2,1,6) = 0
 execute_wait(1,2,4): - x(1,2,4) - e(1,2,4) + x(3,2,2) = 0
 execute_wait(1,2,5): e(1,2,4) - x(1,2,5) - e(1,2,5) + x(3,2,3) = 0
 execute_wait(1,2,6): e(1,2,5) - x(1,2,6) - e(1,2,6) + x(3,2,4) = 0
 execute_wait(1,3,4): - x(1,3,4) - e(1,3,4) + x(2,3,2) = 0
 execute_wait(1,3,5): e(1,3,4) - x(1,3,5) - e(1,3,5) + x(2,3,3) = 0
 execute_wait(1,3,6): e(1,3,5) - x(1,3,6) - e(1,3,6) + x(2,3,4) = 0
 execute_wait(1,3,7): e(1,3,6) - x(1,3,7) - e(1,3,7) + x(2,3,5) = 0
 final_execute(3,1): e(3,1,3) - x(3,1,4) = 0
 final_execute(2,2): e(2,2,3) - x(2,2,4) = 0
 final_execute(3,3): e(3,3,4) - x(3,3,5) = 0
 final_execute(1,1): e(1,1,5) - x(1,1,6) + x(3,1,4) = 0
 final_execute(3,2): x(2,2,4) + e(3,2,4) - x(3,2,5) = 0
 final_execute(2,3): e(2,3,5) - x(2,3,6) + x(3,3,5) = 0
 final_execute(2,1): x(1,1,6) + e(2,1,6) - x(2,1,7) = 0
 final_execute(1,2): e(1,2,6) - x(1,2,7) + x(3,2,5) = 0
 final_execute(1,3): e(1,3,7) - x(1,3,8) + x(2,3,6) = 0
 makespan(1): - 5 x(2,1,4) - 6 x(2,1,5) - 7 x(2,1,6) - 8 x(2,1,7) + C >= 0
 makespan(2): - 5 x(1,2,4) - 6 x(1,2,5) - 7 x(1,2,6) - 8 x(1,2,7) + C >= 0
 makespan(3): - 4 x(1,3,4) - 5 x(1,3,5) - 6 x(1,3,6) - 7 x(1,3,7)
   - 8 x(1,3,8) + C >= 0
Bounds
Binaries
 f(1,1) f(1,2) f(1,3) x(1,1,3) e(1,1,3) f(1,4) x(1,1,4) e(1,1,4) x(1,2,4)
 e(1,2,4) x(1,3,4) e(1,3,4) f(1,5) x(1,1,5) e(1,1,5) x(1,2,5) e(1,2,5)
 x(1,3,5) e(1,3,5) f(1,6) x(1,1,6) e(1,1,6) x(1,2,6) e(1,2,6) x(1,3,6)
 e(1,3,6) f(1,7) x(1,2,7) e(1,2,7) x(1,3,7) e(1,3,7) f(1,8) x(1,3,8)
 e(1,3,8) f(2,1) x(2,2,1) e(2,2,1) f(2,2) x(2,2,2) e(2,2,2) x(2,3,2)
 e(2,3,2) f(2,3) x(2,2,3) e(2,2,3) x(2,3,3) e(2,3,3) f(2,4) x(2,1,4)
 e(2,1,4) x(2,2,4) e(2,2,4) x(2,3,4) e(2,3,4) f(2,5) x(2,1,5) e(2,1,5)
 x(2,3,5) e(2,3,5) f(2,6) x(2,1,6) e(2,1,6) x(2,3,6) e(2,3,6) f(2,7)
 x(2,1,7) e(2,1,7) f(2,8) f(3,1) x(3,1,1) e(3,1,1) x(3,3,1) e(3,3,1) f(3,2)
 x(3,1,2) e(3,1,2) x(3,2,2) e(3,2,2) x(3,3,2) e(3,3,2) f(3,3) x(3,1,3)
 e(3,1,3) x(3,2,3) e(3,2,3) x(3,3,3) e(3,3,3) f(3,4) x(3,1,4) e(3,1,4)
 x(3,2,4) e(3,2,4) x(3,3,4) e(3,3,4) f(3,5) x(3,2,5) e(3,2,5) x(3,3,5)
 e(3,3,5) f(3,6) f(3,7) f(3,8)
Generals
 C
End
